111001000101101111010110101100100010010011110110100100110100000100100001000001100011010100001101001011011101110000011000010110000111011100110110110001101111011100011100111101001111010001000110011011111100011001100001101011101001011010111100100110111011111110001100101000001100111000100010110010000100010110011010000011111011100100001010100001111111001010111111101111101110101000100111100001101001111101100011001010110011001111011001010000001110000101000001001101111000010000100010011100100110011100000110101010110101111111100100111000001001000001011111000010000110001111010100101110011010000000001011111001010100001111100001010001011011110110100011101000000101100011110001100011000001111101100011100000110110000100001111100010011000100101000111110010000101110101010101001100011101001111101100101011000011000110011111011010110001010100100000100010110100110001001110001010110100000011000001010001001000000011010110111111101110110100110111000111101011011111100000110111011001110111110111101110100000101010111110101110010000001101101011111111011001110101100100001011001000111111010110001001111010100110010101011010000001101010011000111110100011000011011010100000011111100001000100000111100010010101101011111000101110111110101010100011000011001101100011111110001110111110000001101010001011110001010111001100101101000000001011110101010101110100100111